(declare-const p10_9 Real)
(declare-const sin Real)
(declare-const special Real)
(declare-const p15 Real)
(declare-const income Real)
(declare-const p9 Real)
(declare-const fee_bl Real)
(declare-const p6_4 Real)
(declare-const p12_8 Real)
(assert (= p6_4 (* 0.064 (ite (> income 57375) 57375 income))))
(assert (= p9 (ite (> income 57375) (* 0.09 (- (ite (> income 114750) 114750 income) 57375)) 0)))
(assert (= p10_9 (ite (> income 114750) (* 0.109 (- (ite (> income 177882) 177882 income) 114750)) 0)))
(assert (= p12_8 (ite (> income 177882) (* 0.128 (- (ite (> income 500000) 500000 income) 177882)) 0)))
(assert (= p15 (ite (> income 500000) (* 0.15 (- income 500000)) 0)))
(assert (= special (ite (>= sin 900000000) 0 1)))
(assert (= fee_bl (* special (+ (+ (+ (+ p6_4 p9) p10_9) p12_8) p15))))